NAME          PRIMAL
ROWS
 N  COST
 L  LIM1
 L  LIM2
 L  LIM3
COLUMNS
    XONE      COST                -1   LIM1                 2
    XONE      LIM2                 0
    XONE      LIM3                -1
    XTWO      COST                -1   LIM1                 1
    XTWO      LIM2                 1
    XTWO      LIM3                 0
    XTHREE    COST                -2   LIM1                 1
    XTHREE    LIM2                 2
    XTHREE    LIM3                 3
RHS
    RHS1      LIM1                 1   LIM2                 3   
    RHS1      LIM3                 2
ENDATA
